22
methanesulfonamide complex (idealized)
Zn     0.000000     0.000000     0.000000
N      1.932415     0.000000    -0.684304
H      2.566692     0.000000     0.088285
H      2.096024    -0.814064    -1.240840
H      2.096024     0.814064    -1.240840
N     -0.966208     1.673521    -0.684304
H     -1.126457     1.595307    -1.667870
H     -1.844430     1.773824    -0.217544
H     -0.408483     2.484109    -0.507980
N     -0.966208    -1.673521    -0.684304
H     -1.126457    -2.306853     0.072274
H     -1.844430    -1.418051    -1.087616
H     -0.408483    -2.128336    -1.378052
N      0.000000     0.000000     2.050000
S      0.000000     0.000000     3.650000
H      0.950000     0.000000     1.750000
O     -0.683415     1.183710     4.134020
O     -0.683415    -1.183710     4.134020
C      1.677902     0.000000     4.244176
H      2.202902     0.909327     4.644176
H      0.627902     0.000000     4.644176
H      2.202902    -0.909327     4.644176
