20
methylamine complex (idealized)
Zn     0.000000     0.000000     0.000000
N      1.932415     0.000000    -0.684304
H      2.566692     0.000000     0.088285
H      2.096024    -0.814064    -1.240840
H      2.096024     0.814064    -1.240840
N     -0.966208     1.673521    -0.684304
H     -1.126457     1.595307    -1.667870
H     -1.844430     1.773824    -0.217544
H     -0.408483     2.484109    -0.507980
N     -0.966208    -1.673521    -0.684304
H     -1.126457    -2.306853     0.072274
H     -1.844430    -1.418051    -1.087616
H     -0.408483    -2.128336    -1.378052
N      0.000000     0.000000     2.050000
C      0.000000     0.000000     3.520000
H     -0.470000     0.814064     1.700000
H     -0.470000    -0.814064     1.700000
H      0.515000     0.892006     3.880000
H     -1.030000     0.000000     3.880000
H      0.515000    -0.892006     3.880000
