50
pyridine complex (idealized)
Fe     0.000000     0.000000     0.000000
N      2.000000     0.000000     0.000000
N      0.000000     2.000000     0.000000
N     -2.000000     0.000000     0.000000
N     -0.000000    -2.000000     0.000000
C      2.830000     1.100000     0.000000
C     -1.100000     2.830000     0.000000
C     -2.830000    -1.100000     0.000000
C      1.100000    -2.830000     0.000000
C      2.830000    -1.100000     0.000000
C      1.100000     2.830000     0.000000
C     -2.830000     1.100000     0.000000
C     -1.100000    -2.830000     0.000000
C      4.200000     0.700000     0.000000
C     -0.700000     4.200000     0.000000
C     -4.200000    -0.700000     0.000000
C      0.700000    -4.200000     0.000000
C      4.200000    -0.700000     0.000000
C      0.700000     4.200000     0.000000
C     -4.200000     0.700000     0.000000
C     -0.700000    -4.200000     0.000000
C      2.400000     2.400000     0.000000
C     -2.400000     2.400000     0.000000
C     -2.400000    -2.400000     0.000000
C      2.400000    -2.400000     0.000000
H      5.100000     1.280000     0.000000
H     -1.280000     5.100000     0.000000
H     -5.100000    -1.280000     0.000000
H      1.280000    -5.100000     0.000000
H      5.100000    -1.280000     0.000000
H      1.280000     5.100000     0.000000
H     -5.100000     1.280000     0.000000
H     -1.280000    -5.100000     0.000000
H      3.160000     3.160000     0.000000
H     -3.160000     3.160000     0.000000
H     -3.160000    -3.160000     0.000000
H      3.160000    -3.160000     0.000000
S      0.000000     0.000000    -2.300000
H      0.950000     0.000000    -2.900000
N      0.000000     0.000000     2.000000
C      1.203775     0.000000     2.695000
H      2.139083     0.000000     2.155000
C      1.203775     0.000000     4.085000
H      2.139083     0.000000     4.625000
C      0.000000     0.000000     4.780000
H      0.000000     0.000000     5.860000
C     -1.203775     0.000000     4.085000
H     -2.139083     0.000000     4.625000
C     -1.203775     0.000000     2.695000
H     -2.139083     0.000000     2.155000
